p cnf 42 20
-38 -31 32 0
12 29 16 0
-37 -17 -8 0
16 -16 23 0
34 -2 -7 0
14 18 17 0
20 -31 21 0
24 36 -8 0
25 8 1 0
-11 -9 8 0
-41 24 -19 0
-34 -38 -35 0
28 -30 -25 0
41 42 7 0
-1 -2 -3 -4 -5 -6 -7 -8 -9 -10 -11 -12 -13 -14 -15 -16 -17 -18 -19 -20 -21 -22 -23 -24 -25 -26 -27 -28 -29 -30 -31 -32 -33 -34 -35 -36 -37 -38 -39 -40 -41 -42 0
33 39 13 0
-5 5 37 0
41 -17 25 0
-30 -1 5 0
1 2 3 4 5 6 7 8 9 10 11 12 13 14 15 16 17 18 19 20 21 22 23 24 25 26 27 28 29 30 31 32 33 34 35 36 37 38 39 40 41 42 0
